c Random 7-CNF over 30 variables and 180 clauses
c Generated with `cnfgen`
c (C) 2012-2016 Massimo Lauria <lauria.massimo@gmail.com>
c https://massimolauria.github.io/cnfgen
c
c COMMAND LINE: cnfgen --output tmp-7-30-180.dimacs --output-format dimacs randkcnf 7 30 180
c
c sdimacs generated by gen-sdimacs
c
p cnf 30 180
e 16 17 18 19 20 21 22 23 24 25 26 27 28 29 30 0
r 0.37 1 2 3 4 5 6 7 8 9 10 11 12 13 14 15 0
5 6 -8 9 15 25 -30 0
-2 8 11 12 22 26 28 0
-3 -4 8 -17 -20 -25 -26 0
-3 -4 -9 15 -17 20 -22 0
5 -7 -8 -13 -16 23 -28 0
-2 -7 15 16 -22 26 27 0
-6 13 -16 17 -22 -25 30 0
-2 6 9 11 -13 15 30 0
-6 8 14 19 25 27 29 0
-5 8 15 -16 20 -25 30 0
-2 -3 -15 -20 -22 -23 24 0
-1 -2 -9 12 -13 -14 -24 0
-7 -16 21 -22 -28 29 -30 0
1 -5 -6 -10 -11 16 18 0
2 -6 -9 -10 14 17 -30 0
-4 5 8 14 -21 -24 -27 0
-1 -2 -5 -17 -20 -24 -28 0
-8 13 15 17 19 20 29 0
3 -11 14 -15 -17 19 -25 0
6 -10 12 14 -22 23 25 0
-4 -11 -12 -20 22 -25 -28 0
-1 2 6 -16 -18 21 -26 0
-1 8 13 14 18 23 26 0
1 7 -8 -11 -15 -24 -26 0
4 -6 -12 15 -17 -22 -24 0
4 5 -6 8 15 19 29 0
-2 -7 -20 -21 25 -26 -28 0
-1 2 3 7 9 -13 -26 0
-4 -5 7 -8 16 23 -29 0
-4 -12 -13 14 -15 -21 -22 0
2 9 23 -24 -25 -26 -27 0
-5 -9 -10 14 -15 -18 -22 0
2 -4 -7 -13 -28 29 -30 0
1 -2 -9 12 14 20 -24 0
-1 14 16 -20 -22 25 -29 0
1 -2 -4 -6 10 -11 -19 0
7 11 13 15 20 -26 28 0
2 3 8 10 11 -19 20 0
6 8 11 -16 17 22 -25 0
-4 -7 -9 -20 -22 -23 29 0
-6 -7 9 23 26 -27 28 0
2 3 4 -11 19 22 -26 0
3 9 12 -14 15 -18 -27 0
-1 -5 -17 -25 -27 -28 -29 0
-5 9 -20 23 -24 25 28 0
-3 -7 -11 -15 -22 -27 29 0
-11 -16 18 -19 20 -27 -28 0
3 -4 5 -7 -11 -19 20 0
-4 7 12 -21 25 27 -30 0
3 -6 -8 9 17 19 -30 0
1 6 7 -14 -15 17 -29 0
-1 6 -10 -13 -20 22 -25 0
2 3 -9 -12 -15 21 -28 0
1 -2 6 12 -14 18 23 0
5 11 13 25 26 27 -28 0
1 -6 -14 -18 22 -27 29 0
-3 -11 15 24 27 29 30 0
1 2 8 -14 16 26 -28 0
-1 -3 -5 -12 -23 27 30 0
3 -4 6 14 20 -21 -23 0
3 -5 12 -19 23 26 -29 0
-2 9 17 -20 22 -24 -28 0
-1 -3 -4 -5 -14 -25 -29 0
1 -7 12 -20 -21 -26 28 0
3 -4 -6 -12 -19 24 -28 0
-1 4 5 -7 -16 19 -29 0
4 12 -13 -14 15 -25 30 0
-2 -7 -10 -11 12 -23 28 0
-4 10 -16 -17 -25 -27 -29 0
4 5 -6 -21 -24 28 -29 0
7 8 -13 14 -15 23 -26 0
-3 -4 -7 21 -27 28 29 0
1 -6 -7 -8 15 -29 30 0
4 9 10 -13 -14 -25 29 0
2 -17 -18 -20 23 26 -28 0
2 6 12 -14 15 -29 30 0
1 -5 11 13 -19 -22 -26 0
-1 -6 -13 -15 16 -23 25 0
6 8 -9 -11 -13 -22 -23 0
-9 12 -15 -18 -23 -26 29 0
-9 13 -17 18 22 24 -30 0
-7 -9 13 19 -20 -24 29 0
-5 9 15 17 -19 -22 -24 0
3 -8 10 17 -23 27 -28 0
-1 -11 12 15 16 22 -26 0
2 -7 8 -18 -21 -24 26 0
-1 2 -10 13 19 21 24 0
5 -7 -10 -11 13 22 -29 0
-6 -9 13 -14 -18 27 -28 0
8 -9 -15 -17 -18 26 28 0
1 -3 6 11 -18 -19 22 0
1 -10 -16 -18 -21 22 29 0
4 8 10 -12 -18 -23 28 0
-1 5 12 17 -24 -25 -28 0
-5 14 15 20 -24 26 -28 0
-2 3 4 -6 14 -21 25 0
-1 -9 10 -12 26 28 29 0
-3 5 -16 19 -22 -23 26 0
-3 10 -15 20 27 29 -30 0
-2 6 15 20 -23 -26 -28 0
2 -5 -7 -14 18 22 25 0
-3 -4 -6 -14 19 23 -25 0
-10 13 -16 17 -26 -27 -30 0
-3 -4 5 8 10 18 20 0
3 6 14 15 -17 -20 21 0
6 13 20 -22 24 -25 -30 0
1 -7 15 23 -25 -26 -28 0
10 11 -16 19 -22 28 -29 0
-10 13 -20 -22 25 29 30 0
1 5 7 -18 19 25 -27 0
-4 -5 -11 13 19 -21 -26 0
-1 6 10 -14 23 26 29 0
-6 -8 11 13 19 20 30 0
-5 -9 12 16 -17 -25 27 0
-11 -17 18 20 -22 25 -30 0
10 12 13 15 -17 20 -29 0
2 8 15 16 -21 -28 -30 0
1 -2 12 -16 -22 27 29 0
-2 17 18 19 22 27 29 0
-3 5 -8 9 11 12 -26 0
1 -2 5 -16 -24 -26 28 0
3 4 5 20 -24 -27 -29 0
5 12 14 -21 -26 27 29 0
-6 -10 13 14 -16 -17 29 0
-4 7 -9 11 -18 -21 27 0
5 -6 -13 -15 21 -22 27 0
1 -2 6 -11 15 -19 -29 0
7 10 -12 14 -21 -27 -29 0
7 -8 -13 -14 -15 -16 23 0
-4 15 17 -18 -22 -25 -28 0
-1 7 8 9 17 21 -29 0
-2 9 -13 -15 -21 25 -26 0
4 6 -11 -12 -13 -22 -28 0
-1 2 -9 -13 -15 -16 24 0
-3 -9 11 -12 22 -25 26 0
-4 -7 8 -11 -15 -19 -30 0
-3 5 10 12 14 -23 -25 0
1 11 -12 14 17 -27 -28 0
-1 -10 -22 23 24 -25 26 0
4 -6 -20 24 -26 -28 -30 0
4 -13 -15 -19 -21 24 -28 0
-4 5 -6 12 -16 -17 19 0
4 12 -14 -15 21 -24 29 0
-3 -5 8 12 16 22 -25 0
1 -3 -7 14 16 20 26 0
1 -9 -14 -17 -19 -23 30 0
-3 5 -8 9 -10 23 28 0
3 10 11 -16 -17 19 30 0
-1 -8 15 18 -23 -24 -29 0
-2 -4 -5 -7 9 -20 -26 0
-1 -3 10 -14 -15 -22 -30 0
9 -11 13 -21 24 -25 29 0
3 -4 8 10 -19 -22 27 0
4 -13 -21 22 -26 28 30 0
-3 -5 -9 -10 -15 -17 30 0
3 -9 12 -15 16 22 -28 0
1 -7 -8 -14 -18 20 21 0
5 9 -10 13 16 -24 27 0
-6 -17 20 25 26 -28 29 0
6 -8 11 19 21 26 30 0
2 3 5 9 -17 18 19 0
5 6 13 14 19 -22 28 0
3 -8 9 -10 -13 20 26 0
-1 9 10 -14 17 22 28 0
-4 -7 17 22 25 -27 29 0
4 5 -6 -7 20 -24 -29 0
1 -4 -6 -18 24 -27 -28 0
3 6 10 11 -12 18 30 0
-6 -12 -14 -15 -17 18 -29 0
8 -12 15 -16 -21 -22 -28 0
-5 -9 25 26 -27 28 -29 0
1 3 -4 8 -17 22 -24 0
1 -16 -17 -18 20 25 28 0
2 -11 14 -22 25 26 -30 0
6 8 9 -10 -21 -22 28 0
-7 -9 15 18 -20 23 -24 0
-7 -13 -14 21 -22 27 -29 0
-7 -10 15 19 -24 -28 -30 0
-5 -11 17 24 25 27 -29 0
-2 3 -15 23 25 -27 -30 0
